c generated by sgen
p cnf 97 204
-2 -3 -4 0
-1 -3 -4 0
-1 -2 -4 0
-1 -2 -3 0
-6 -7 -8 0
-5 -7 -8 0
-5 -6 -8 0
-5 -6 -7 0
-10 -11 -12 0
-9 -11 -12 0
-9 -10 -12 0
-9 -10 -11 0
-14 -15 -16 0
-13 -15 -16 0
-13 -14 -16 0
-13 -14 -15 0
-18 -19 -20 0
-17 -19 -20 0
-17 -18 -20 0
-17 -18 -19 0
-22 -23 -24 0
-21 -23 -24 0
-21 -22 -24 0
-21 -22 -23 0
-26 -27 -28 0
-25 -27 -28 0
-25 -26 -28 0
-25 -26 -27 0
-30 -31 -32 0
-29 -31 -32 0
-29 -30 -32 0
-29 -30 -31 0
-34 -35 -36 0
-33 -35 -36 0
-33 -34 -36 0
-33 -34 -35 0
-38 -39 -40 0
-37 -39 -40 0
-37 -38 -40 0
-37 -38 -39 0
-42 -43 -44 0
-41 -43 -44 0
-41 -42 -44 0
-41 -42 -43 0
-46 -47 -48 0
-45 -47 -48 0
-45 -46 -48 0
-45 -46 -47 0
-50 -51 -52 0
-49 -51 -52 0
-49 -50 -52 0
-49 -50 -51 0
-54 -55 -56 0
-53 -55 -56 0
-53 -54 -56 0
-53 -54 -55 0
-58 -59 -60 0
-57 -59 -60 0
-57 -58 -60 0
-57 -58 -59 0
-62 -63 -64 0
-61 -63 -64 0
-61 -62 -64 0
-61 -62 -63 0
-66 -67 -68 0
-65 -67 -68 0
-65 -66 -68 0
-65 -66 -67 0
-70 -71 -72 0
-69 -71 -72 0
-69 -70 -72 0
-69 -70 -71 0
-74 -75 -76 0
-73 -75 -76 0
-73 -74 -76 0
-73 -74 -75 0
-78 -79 -80 0
-77 -79 -80 0
-77 -78 -80 0
-77 -78 -79 0
-82 -83 -84 0
-81 -83 -84 0
-81 -82 -84 0
-81 -82 -83 0
-86 -87 -88 0
-85 -87 -88 0
-85 -86 -88 0
-85 -86 -87 0
-90 -91 -92 0
-89 -91 -92 0
-89 -90 -92 0
-89 -90 -91 0
-93 -94 -95 0
-93 -94 -96 0
-93 -94 -97 0
-93 -95 -96 0
-93 -95 -97 0
-93 -96 -97 0
-94 -95 -96 0
-94 -95 -97 0
-94 -96 -97 0
-95 -96 -97 0
32 81 51 0
90 81 51 0
90 32 51 0
90 32 81 0
37 45 70 0
21 45 70 0
21 37 70 0
21 37 45 0
22 75 10 0
55 75 10 0
55 22 10 0
55 22 75 0
48 33 63 0
96 33 63 0
96 48 63 0
96 48 33 0
76 41 86 0
71 41 86 0
71 76 86 0
71 76 41 0
56 47 88 0
13 47 88 0
13 56 88 0
13 56 47 0
35 91 26 0
54 91 26 0
54 35 26 0
54 35 91 0
9 16 62 0
50 16 62 0
50 9 62 0
50 9 16 0
72 64 58 0
66 64 58 0
66 72 58 0
66 72 64 0
4 61 92 0
77 61 92 0
77 4 92 0
77 4 61 0
57 11 97 0
89 11 97 0
89 57 97 0
89 57 11 0
67 28 94 0
23 28 94 0
23 67 94 0
23 67 28 0
79 20 68 0
29 20 68 0
29 79 68 0
29 79 20 0
80 52 44 0
59 52 44 0
59 80 44 0
59 80 52 0
87 39 8 0
65 39 8 0
65 87 8 0
65 87 39 0
38 34 3 0
18 34 3 0
18 38 3 0
18 38 34 0
69 5 82 0
17 5 82 0
17 69 82 0
17 69 5 0
84 95 40 0
78 95 40 0
78 84 40 0
78 84 95 0
27 85 49 0
19 85 49 0
19 27 49 0
19 27 85 0
31 1 43 0
53 1 43 0
53 31 43 0
53 31 1 0
15 74 60 0
36 74 60 0
36 15 60 0
36 15 74 0
14 24 30 0
7 24 30 0
7 14 30 0
7 14 24 0
93 42 12 0
6 42 12 0
6 93 12 0
6 93 42 0
83 2 46 0
83 2 25 0
83 2 73 0
83 46 25 0
83 46 73 0
83 25 73 0
2 46 25 0
2 46 73 0
2 25 73 0
46 25 73 0
